s td 47 21 92
b 1 1 3 14 51 69 73 75 76
b 2 1 19 29 51 53 69 75 90
b 3 5 6 36 60 63 79 89
b 4 26 30 46 60 63 79 89
b 5 7 32 37 42 55 78 85
b 6 26 30 37 42 46 55 78
b 7 10 11 22 44 70 77 86
b 8 11 19 22 29 44 53 77 90
b 9 15 25 27 40 49 64 66 88
b 10 19 27 29 49 53 66 88 90
b 11 1 2 8 11 17 18 20 21 23 26 30 45 46 51 61 65 67 71 72 77 87
b 12 1 17 18 20 21 23 26 30 45 46 51 57 61 65 67 71 72 87
b 13 1 17 18 20 21 23 26 30 45 46 48 51 57 61 65 71 72 87
b 14 1 17 18 20 21 23 26 30 38 45 46 48 51 57 61 65 71 87
b 15 1 17 20 21 23 26 30 38 45 46 48 51 57 59 61 65 71 87
b 16 1 20 21 23 26 30 38 45 46 48 51 57 59 61 65 71 82 87
b 17 1 20 23 26 30 38 45 46 48 51 57 59 61 62 65 71 82 87
b 18 20 23 26 30 38 45 46 48 57 59 60 61 62 71 82 87 89
b 19 20 23 38 48 57 58 59 60 61 62 82 87 89
b 20 23 57 58 59 60 61 62 68 82 89
b 21 4 57 59 60 61 62 68 89
b 22 20 48 58 59 60 62 83 89
b 23 1 24 48 51 57 62 65 82
b 24 1 12 17 38 48 51 57 59
b 25 11 17 18 20 21 23 26 30 43 45 46 61 65 67 71 72 77 87
b 26 11 17 18 20 21 23 26 30 41 43 45 46 61 65 71 72 77 87
b 27 11 17 18 20 21 23 26 30 34 41 43 45 46 61 65 71 77 87
b 28 11 17 18 20 23 26 28 30 34 41 43 45 46 61 65 71 77 87
b 29 9 11 28 34 41 43 65 77
b 30 11 17 18 20 23 26 28 30 34 41 43 45 46 61 71 77 81 87
b 31 11 17 20 23 26 28 30 33 34 41 43 45 46 61 71 77 81 87
b 32 20 23 26 28 30 33 34 41 42 43 45 46 55 61 71 81 87
b 33 20 23 28 33 34 39 41 42 43 45 55 61 81 87
b 34 16 20 23 28 33 34 39 41 42 45 55 81 87
b 35 16 23 28 33 34 39 42 45 55 81 87 92
b 36 16 23 28 34 39 42 55 56 81 87 92
b 37 23 28 34 39 42 54 55 56
b 38 1 2 8 11 13 17 18 21 26 30 46 47 51 65 67 72 77
b 39 1 2 8 11 13 17 18 21 27 47 50 51 65 66 67 72 77
b 40 1 2 8 11 13 19 27 29 47 50 51 53 66 77 90
b 41 17 18 21 27 65 66 67 72 80
b 42 17 18 27 35 65 66 67 72 80
b 43 17 18 27 31 35 65 66 72 80
b 44 17 18 27 31 35 66 80 84
b 45 18 27 31 52 66 80 84
b 46 27 31 35 65 66 80 91
b 47 20 23 26 30 45 46 61 71 74 87
1 2
2 40
3 4
4 18
5 6
6 32
7 8
8 40
9 10
10 40
11 12
11 25
11 38
11 47
12 13
13 14
14 15
15 16
15 24
16 17
17 18
17 23
18 19
19 20
19 22
20 21
25 26
26 27
27 28
28 29
28 30
30 31
31 32
32 33
33 34
34 35
35 36
36 37
38 39
39 40
39 41
41 42
42 43
43 44
43 46
44 45
